src/LKH/IO/anjos-75-05.tour
NAME : anjos-75-05.-180.tour
COMMENT : Length = -180
COMMENT : Found by LKH [Keld Helsgaun] Sun Apr 13 17:05:00 2025
TYPE : TOUR
DIMENSION : 75
TOUR_SECTION
1
42
65
35
74
51
2
56
4
34
16
48
46
25
32
44
28
38
40
64
8
52
55
11
33
62
13
24
66
71
6
53
73
5
3
49
23
50
20
37
22
72
68
70
14
29
18
12
17
19
67
69
75
9
30
36
21
15
54
61
63
31
7
10
43
45
60
59
58
26
57
27
41
39
47
-1
EOF
